
List of user-set options:

                                    Name   Value                used
                           compl_inf_tol = 1                     yes
                         constr_viol_tol = 1                     yes
                            dual_inf_tol = 1000                  yes
                           linear_solver = ma97                  yes
                              ma86_small = 1e-30                  no
                                  ma86_u = 0.0001                 no
                              ma97_order = best                  yes
                              ma97_small = 1e-30                 yes
                            ma97_switch1 = at_start              yes
                            ma97_switch2 = od_hd_reuse           yes
                                  ma97_u = 1e-06                 yes
                               ma97_umax = 0.5                   yes
                                max_iter = 1000                  yes
                    max_refinement_steps = 20                    yes
                    min_refinement_steps = 5                     yes
                                 mu_init = 1e-06                 yes
           mu_superlinear_decrease_power = 1.25                  yes
                   nlp_scaling_min_value = 1e-08                 yes
                        option_file_name = Preset_Case_135_pf.opt  yes
                             output_file = ./tmp/Preset_Case_135_pf.output  yes
                      print_user_options = yes                   yes
        required_infeasibility_reduction = 1                      no
                                     tol = 1e-08                 yes
                   warm_start_bound_frac = 1e-20                 yes
                   warm_start_bound_push = 1e-20                 yes
                   warm_start_init_point = yes                   yes
              warm_start_mult_bound_push = 1e-20                 yes
                warm_start_mult_init_max = 1e+40                 yes
             warm_start_slack_bound_frac = 1e-20                 yes
             warm_start_slack_bound_push = 1e-20                 yes

******************************************************************************
This program contains Ipopt, a library for large-scale nonlinear optimization.
 Ipopt is released as open source code under the Eclipse Public License (EPL).
         For more information visit http://projects.coin-or.org/Ipopt
******************************************************************************

This is Ipopt version 3.12.10, running with linear solver ma97.

Number of nonzeros in equality constraint Jacobian...:   123442
Number of nonzeros in inequality constraint Jacobian.:      213
Number of nonzeros in Lagrangian Hessian.............:    49069

Total number of variables............................:    31591
                     variables with only lower bounds:    12912
                variables with lower and upper bounds:    15130
                     variables with only upper bounds:        0
Total number of equality constraints.................:    31483
Total number of inequality constraints...............:       25
        inequality constraints with only lower bounds:        4
   inequality constraints with lower and upper bounds:        0
        inequality constraints with only upper bounds:       21

iter    objective    inf_pr   inf_du lg(mu)  ||d||  lg(rg) alpha_du alpha_pr  ls
   0 -5.3096124e+00 4.06e-03 1.02e+00  -6.0 0.00e+00    -  0.00e+00 0.00e+00   0
   1 -5.3092113e+00 6.24e-02 1.02e+00  -6.0 4.70e+05    -  6.72e-05 6.01e-05h  5
   2 -5.3110339e+00 6.23e-02 3.78e+01  -6.0 6.11e+03    -  1.68e-01 1.88e-03h  1
   3 -5.4381775e+00 1.07e+01 2.52e+02  -6.0 6.12e+03    -  1.19e-01 1.32e-01f  1
   4 -5.4776712e+00 1.41e+01 2.70e+02  -6.0 8.66e+03    -  8.51e-02 5.85e-02h  1
   5 -5.5725697e+00 1.78e+01 6.16e+05  -6.0 3.00e+03    -  6.16e-02 2.19e-01h  1
   6 -5.5980485e+00 1.12e+01 4.72e+05  -6.0 1.56e+02  -4.0 2.51e-03 3.69e-01h  1
   7 -5.5966606e+00 1.05e+01 4.49e+05  -6.0 1.15e+01  -4.5 6.64e-02 6.45e-02h  1
   8 -5.6252416e+00 1.02e+01 4.22e+05  -6.0 2.48e+03    -  5.58e-04 5.82e-02h  1
   9 -5.6311556e+00 6.28e-01 3.01e+03  -6.0 9.93e+00  -5.0 1.22e-01 1.00e+00h  1
iter    objective    inf_pr   inf_du lg(mu)  ||d||  lg(rg) alpha_du alpha_pr  ls
  10 -5.6761489e+00 3.87e-01 1.09e+02  -6.0 6.16e+01  -5.4 4.37e-01 1.00e+00h  1
  11 -5.7052365e+00 5.55e-01 8.35e+01  -6.0 6.39e+01  -5.9 2.23e-01 1.16e-01h  1
  12 -5.7718856e+00 3.98e+00 1.04e+02  -6.0 5.89e+03    -  4.17e-02 1.96e-01h  1
  13 -5.7724995e+00 3.95e+00 1.01e+02  -6.0 1.28e+02  -6.4 9.39e-02 6.41e-03h  1
  14 -5.7725055e+00 3.95e+00 1.01e+02  -6.0 3.00e+01  -5.1 5.53e-04 1.22e-04h  1
  15 -5.7723558e+00 3.92e+00 1.58e+02  -6.0 1.79e+02  -5.5 3.63e-02 6.56e-03h  5
  16 -5.8245470e+00 3.13e+00 1.79e+02  -6.0 2.28e+03    -  1.16e-01 2.41e-01h  1
  17 -5.8677755e+00 4.85e+00 1.53e+03  -6.0 1.01e+03    -  1.31e-01 4.64e-01h  1
  18 -5.8607226e+00 2.18e+00 5.82e+02  -6.0 3.81e+01  -6.0 9.75e-02 5.51e-01h  1
  19 -5.8666919e+00 2.03e+00 5.36e+02  -6.0 1.33e+03    -  2.01e-01 8.58e-02h  1
iter    objective    inf_pr   inf_du lg(mu)  ||d||  lg(rg) alpha_du alpha_pr  ls
  20 -5.8835264e+00 1.86e+00 4.08e+02  -6.0 1.83e+03    -  1.15e-01 2.50e-01h  1
  21 -5.9188306e+00 8.63e+00 1.93e+03  -6.0 2.07e+03    -  5.40e-01 8.15e-01h  1
  22 -5.9189853e+00 7.01e+00 7.57e+03  -6.0 3.88e+02    -  6.00e-01 1.88e-01h  1
  23 -5.9199887e+00 1.40e+00 4.32e+02  -6.0 3.79e+02    -  1.00e+00 1.00e+00h  1
  24 -5.9229724e+00 1.20e+00 2.56e+04  -6.0 2.22e+03    -  4.53e-01 1.63e-01h  1
  25 -5.9276417e+00 1.01e+00 4.11e+04  -6.0 3.94e+02    -  1.00e+00 6.16e-01h  1
  26 -5.9384645e+00 1.24e+00 8.72e+04  -6.0 2.10e+02    -  5.40e-01 1.00e+00h  1
  27 -5.9429443e+00 1.04e+00 5.56e+05  -6.0 2.59e+02    -  9.97e-01 2.72e-01h  1
  28 -5.9492116e+00 1.01e+00 3.89e+05  -6.0 3.25e+02    -  3.45e-01 3.24e-01h  1
  29r-5.9492116e+00 1.01e+00 1.00e+03   0.0 0.00e+00    -  0.00e+00 1.58e-07R  2
iter    objective    inf_pr   inf_du lg(mu)  ||d||  lg(rg) alpha_du alpha_pr  ls
  30r-5.9585102e+00 1.01e+00 1.00e+03   0.0 1.34e+04    -  6.76e-06 1.74e-06f  1
  31 -5.9583207e+00 9.92e-01 1.22e+05  -6.0 1.27e+01    -  9.30e-02 1.77e-02h  1
  32 -5.9547590e+00 8.28e-01 1.36e+06  -6.0 1.06e+01    -  1.77e-02 1.66e-01h  1
  33 -5.9467524e+00 4.05e-01 6.65e+05  -6.0 9.86e+00    -  2.24e-01 5.11e-01h  1
  34 -5.9447236e+00 1.65e-02 2.51e+04  -6.0 6.41e+00    -  2.10e-01 9.62e-01h  1
  35 -5.9470983e+00 1.42e-02 2.16e+04  -6.0 2.17e+00    -  9.42e-01 1.41e-01f  1
  36 -5.9471027e+00 1.41e-02 2.15e+04  -6.0 1.25e+00  -3.8 9.59e-01 4.65e-03h  1
  37 -5.9481965e+00 9.25e-03 1.10e+03  -6.0 3.83e+00  -4.3 9.45e-01 9.49e-01f  1
  38 -5.9476899e+00 6.38e-04 7.60e+01  -6.0 1.26e+00  -4.7 9.93e-01 9.31e-01h  1
  39 -5.9478732e+00 8.14e-04 3.04e-02  -6.0 2.68e+00  -5.2 1.00e+00 1.00e+00f  1
iter    objective    inf_pr   inf_du lg(mu)  ||d||  lg(rg) alpha_du alpha_pr  ls
  40 -5.9502152e+00 5.16e-01 1.68e+01  -6.0 7.73e+02    -  2.41e-01 7.02e-02h  1
  41 -5.9546482e+00 5.03e-01 2.39e+00  -6.0 1.25e+02    -  1.00e+00 1.00e+00h  1
  42 -5.9536750e+00 1.73e-01 5.06e+00  -6.0 7.31e+01    -  7.83e-01 1.00e+00h  1
  43 -5.9527383e+00 8.87e-03 6.84e-02  -6.0 1.66e+01    -  1.00e+00 1.00e+00h  1
  44 -5.9530389e+00 9.33e-04 5.19e-02  -6.0 4.75e+00    -  1.00e+00 1.00e+00h  1
  45 -5.9530352e+00 5.15e-08 8.76e-05  -6.0 3.62e-02    -  1.00e+00 1.00e+00h  1
  46 -5.9530351e+00 2.86e-10 4.34e-09  -6.0 1.98e-03    -  1.00e+00 1.00e+00h  1
  47 -5.9531070e+00 1.43e-01 5.09e+01  -7.5 1.19e+02    -  9.48e-01 7.72e-01h  1
  48 -5.9531105e+00 3.03e-02 1.15e+01  -7.5 2.72e+01    -  1.00e+00 8.52e-01h  1
  49 -5.9531100e+00 2.31e-04 3.84e-03  -7.5 3.64e+00    -  1.00e+00 1.00e+00h  1
iter    objective    inf_pr   inf_du lg(mu)  ||d||  lg(rg) alpha_du alpha_pr  ls
  50 -5.9531100e+00 1.51e-09 1.54e-09  -7.5 9.63e-03    -  1.00e+00 1.00e+00h  1
  51 -5.9531115e+00 1.73e-04 7.25e-01  -9.0 3.75e+00    -  9.27e-01 8.48e-01h  1
  52 -5.9531118e+00 5.59e-06 8.14e-05  -9.0 5.71e-01    -  1.00e+00 1.00e+00f  1
  53 -5.9531118e+00 4.27e-10 3.61e-09  -9.0 1.63e-04    -  1.00e+00 1.00e+00h  1

Number of Iterations....: 53

                                   (scaled)                 (unscaled)
Objective...............:  -4.6508685681605382e+00   -5.9531117672454892e+00
Dual infeasibility......:   3.6115818663298748e-09    4.6228247889022395e-09
Constraint violation....:   4.2711639032435439e-10    4.2711639032435439e-10
Complementarity.........:   1.1297340108668262e-09    1.4460595339095375e-09
Overall NLP error.......:   3.6115818663298748e-09    4.6228247889022395e-09


Number of objective function evaluations             = 67
Number of objective gradient evaluations             = 54
Number of equality constraint evaluations            = 67
Number of inequality constraint evaluations          = 67
Number of equality constraint Jacobian evaluations   = 55
Number of inequality constraint Jacobian evaluations = 55
Number of Lagrangian Hessian evaluations             = 53
Total CPU secs in IPOPT (w/o function evaluations)   =    116.460
Total CPU secs in NLP function evaluations           =      2.011

EXIT: Optimal Solution Found.
